DATASET = "thpack5";
INSTANCE = "059";

WIDTH = 233;
HEIGHT = 220;
LENGTH = 587;

NO_OF_SHAPES = 12;
size = [|
  76,52,46 |
  66,59,31 |
  62,55,44 |
  95,46,36 |
  63,59,35 |
  100,37,32 |
  91,54,37 |
  49,44,36 |
  109,66,49 |
  69,48,27 |
  109,85,62 |
  48,47,42 |
|];

verticality = [|
  1,1,1 |
  0,1,1 |
  1,1,1 |
  0,1,1 |
  1,1,1 |
  0,1,1 |
  0,1,1 |
  1,1,1 |
  0,1,1 |
  0,1,1 |
  1,1,1 |
  1,1,1 |
|];

box_count = [
  13,
  15,
  18,
  12,
  7,
  7,
  11,
  14,
  15,
  15,
  15,
  12,
];
